NAME : RWPToy-50-0.1775901540.tour
COMMENT : Length = 1775901540
COMMENT : Found by LKH [Keld Helsgaun] Sat Nov 24 00:57:24 2018
TYPE : TOUR
DIMENSION : 55
TOUR_SECTION
1
54
9
11
18
33
47
34
26
15
20
3
48
28
25
2
21
14
16
12
32
24
17
6
5
43
38
4
22
31
37
30
49
35
10
36
50
27
39
41
29
23
45
44
40
46
8
13
42
51
19
7
52
53
55
-1
EOF
